c random clauses
p cnf 11 16
-11 -10 -6 -5 -3 -1 7 8 0
-11 -9 -6 -5 -2 3 4 7 0
-11 -9 -5 -3 -1 6 7 8 0
-11 -8 -6 -5 -1 4 9 10 0
-11 -8 -4 -3 -2 5 9 10 0
-10 -9 -8 -7 -6 -2 3 11 0
-10 -9 -2 -1 3 4 6 8 0
-10 -7 -5 -4 -1 3 6 11 0
-10 -2 -1 3 5 7 9 11 0
-9 -8 -6 -5 -1 2 3 4 0
-8 -7 -5 2 3 6 10 11 0
-8 -6 -4 -1 3 5 10 11 0
-6 -5 -3 -2 1 4 9 11 0
-5 -4 -3 -2 1 7 8 10 0
-5 1 4 6 7 8 9 11 0
-4 -3 -1 2 5 6 8 10 0
